p cnf 6 14
 3  4 1005 0
 -3  -1005 0
 -4  -1005 0
 1  2 3 0
 -1  -3 0
 -2  -3 0
 -1  -2 4 0
 1  -4 0
 2  -4 0
 3  4 2005 0
 -3  -2005 0
 -4  -2005 0
 -1  2 3 0
 1  -3 0
 -2  -3 0
 1  -2 4 0
 -1  -4 0
 2  -4 0
-1005 -2005 -3000 0
-1005 2005 3000 0
 1005 -2005 3000 0
 1005 2005 -3000 0
3000 0
